; SWAP1 SWAP2 SWAP1 DUP3 => DUP2 SWAP3 SWAP2
(set-option :produce-proofs true)
; 
(set-info :status unknown)
(declare-fun storage_t ((_ BitVec 256) (_ BitVec 256) (_ BitVec 256) Int (_ BitVec 256)) (_ BitVec 256))
(declare-fun storage_s ((_ BitVec 256) (_ BitVec 256) (_ BitVec 256) Int (_ BitVec 256)) (_ BitVec 256))
(declare-fun exc_halt_t (Int) Bool)
(declare-fun exc_halt_s (Int) Bool)
(declare-fun sc_t (Int) (_ BitVec 6))
(declare-fun stack_t ((_ BitVec 256) (_ BitVec 256) (_ BitVec 256) Int (_ BitVec 6)) (_ BitVec 256))
(declare-fun stack_s ((_ BitVec 256) (_ BitVec 256) (_ BitVec 256) Int (_ BitVec 6)) (_ BitVec 256))
(declare-fun sc_s (Int) (_ BitVec 6))
(declare-fun used_gas_t ((_ BitVec 256) (_ BitVec 256) (_ BitVec 256) Int) Int)
(declare-fun used_gas_s ((_ BitVec 256) (_ BitVec 256) (_ BitVec 256) Int) Int)
(assert
 (exists ((x_0 (_ BitVec 256)) (x_1 (_ BitVec 256)) (x_2 (_ BitVec 256)) )(let (($x8234 (forall ((w (_ BitVec 256)) )(let ((?x8313 (storage_t x_0 x_1 x_2 3 w)))
 (let ((?x7572 (storage_s x_0 x_1 x_2 4 w)))
 (= ?x7572 ?x8313))))
 ))
 (let (($x6783 (exc_halt_t 3)))
 (let (($x7172 (exc_halt_s 4)))
 (let (($x3272 (= $x7172 $x6783)))
 (let (($x4165 (forall ((n (_ BitVec 6)) )(let ((?x6438 (sc_t 3)))
 (let (($x5094 (bvsle ?x6438 n)))
 (let ((?x3023 (stack_t x_0 x_1 x_2 3 n)))
 (let ((?x6946 (stack_s x_0 x_1 x_2 4 n)))
 (let (($x1994 (= ?x6946 ?x3023)))
 (or $x1994 $x5094)))))))
 ))
 (let ((?x6438 (sc_t 3)))
 (let ((?x4305 (sc_s 4)))
 (let (($x10526 (= ?x4305 ?x6438)))
 (let ((?x3007 (used_gas_t x_0 x_1 x_2 0)))
 (let ((?x5472 (used_gas_s x_0 x_1 x_2 0)))
 (let (($x846 (= ?x5472 ?x3007)))
 (let (($x6975 (forall ((w (_ BitVec 256)) )(let ((?x9279 (storage_t x_0 x_1 x_2 0 w)))
 (let ((?x5100 (storage_s x_0 x_1 x_2 0 w)))
 (= ?x5100 ?x9279))))
 ))
 (let (($x56 (exc_halt_t 0)))
 (let (($x57 (exc_halt_s 0)))
 (let (($x58 (= $x57 $x56)))
 (let (($x1355 (forall ((n (_ BitVec 6)) )(let ((?x63 (sc_t 0)))
 (let (($x7453 (bvsle ?x63 n)))
 (let ((?x8726 (stack_t x_0 x_1 x_2 0 n)))
 (let ((?x5085 (stack_s x_0 x_1 x_2 0 n)))
 (let (($x4002 (= ?x5085 ?x8726)))
 (or $x4002 $x7453)))))))
 ))
 (let ((?x63 (sc_t 0)))
 (let ((?x72 (sc_s 0)))
 (let (($x73 (= ?x72 ?x63)))
 (let (($x140 (= $x6783 (or (exc_halt_t 2) (not (bvsle (_ bv0 6) (bvadd (_ bv61 6) (sc_t 2))))))))
 (let (($x5139 (forall ((w (_ BitVec 256)) )(let ((?x2824 (storage_t x_0 x_1 x_2 2 w)))
 (let ((?x8313 (storage_t x_0 x_1 x_2 3 w)))
 (= ?x8313 ?x2824))))
 ))
 (let (($x10679 (forall ((n (_ BitVec 6)) )(let ((?x9505 (stack_t x_0 x_1 x_2 2 n)))
 (let ((?x3023 (stack_t x_0 x_1 x_2 3 n)))
 (let (($x2352 (= ?x3023 ?x9505)))
 (or $x2352 (bvsle (bvadd (_ bv61 6) (sc_t 2)) n))))))
 ))
 (let ((?x11365 (used_gas_t x_0 x_1 x_2 3)))
 (let (($x8047 (= ?x11365 (+ 3 (used_gas_t x_0 x_1 x_2 2)))))
 (let ((?x2714 (sc_t 2)))
 (let ((?x7799 (bvadd (_ bv62 6) ?x2714)))
 (let ((?x3423 (stack_t x_0 x_1 x_2 2 ?x7799)))
 (let ((?x9210 (bvadd (_ bv62 6) ?x6438)))
 (let ((?x5153 (stack_t x_0 x_1 x_2 3 ?x9210)))
 (let ((?x408 (bvadd (_ bv63 6) ?x2714)))
 (let ((?x2471 (stack_t x_0 x_1 x_2 2 ?x408)))
 (let ((?x8432 (bvadd (_ bv61 6) ?x2714)))
 (let ((?x1094 (stack_t x_0 x_1 x_2 2 ?x8432)))
 (let ((?x9822 (bvadd (_ bv63 6) ?x6438)))
 (let ((?x4005 (stack_t x_0 x_1 x_2 3 ?x9822)))
 (let (($x5252 (exc_halt_t 2)))
 (let (($x7730 (= $x5252 (or (exc_halt_t 1) (not (bvsle (_ bv0 6) (bvadd (_ bv60 6) (sc_t 1))))))))
 (let (($x6874 (forall ((w (_ BitVec 256)) )(let ((?x8697 (storage_t x_0 x_1 x_2 1 w)))
 (let ((?x2824 (storage_t x_0 x_1 x_2 2 w)))
 (= ?x2824 ?x8697))))
 ))
 (let (($x5304 (forall ((n (_ BitVec 6)) )(let ((?x5288 (stack_t x_0 x_1 x_2 1 n)))
 (let ((?x9505 (stack_t x_0 x_1 x_2 2 n)))
 (let (($x5370 (= ?x9505 ?x5288)))
 (or $x5370 (bvsle (bvadd (_ bv60 6) (sc_t 1)) n))))))
 ))
 (let ((?x8347 (sc_t 1)))
 (let (($x3618 (= ?x2714 ?x8347)))
 (let ((?x6978 (used_gas_t x_0 x_1 x_2 2)))
 (let (($x6510 (= ?x6978 (+ 3 (used_gas_t x_0 x_1 x_2 1)))))
 (let ((?x5756 (bvadd (_ bv63 6) ?x8347)))
 (let ((?x11125 (stack_t x_0 x_1 x_2 1 ?x5756)))
 (let ((?x10086 (bvadd (_ bv60 6) ?x2714)))
 (let ((?x3601 (stack_t x_0 x_1 x_2 2 ?x10086)))
 (let (($x3118 (not (= ((_ extract 6 6) (bvadd (_ bv1 7) (concat (_ bv0 1) ?x63))) (_ bv0 1)))))
 (let (($x3508 (exc_halt_t 1)))
 (let (($x11453 (= $x3508 (or $x56 (not (bvsle (_ bv0 6) (bvadd (_ bv62 6) ?x63))) $x3118))))
 (let (($x9201 (forall ((w (_ BitVec 256)) )(let ((?x9279 (storage_t x_0 x_1 x_2 0 w)))
 (let ((?x8697 (storage_t x_0 x_1 x_2 1 w)))
 (= ?x8697 ?x9279))))
 ))
 (let (($x10716 (forall ((n (_ BitVec 6)) )(let ((?x8726 (stack_t x_0 x_1 x_2 0 n)))
 (let ((?x5288 (stack_t x_0 x_1 x_2 1 n)))
 (let (($x10356 (= ?x5288 ?x8726)))
 (let ((?x63 (sc_t 0)))
 (let ((?x7387 (bvadd (_ bv62 6) ?x63)))
 (let (($x2346 (bvsle ?x7387 n)))
 (or $x2346 $x10356))))))))
 ))
 (let (($x6213 (= ?x8347 (bvadd (_ bv1 6) ?x63))))
 (let ((?x6680 (used_gas_t x_0 x_1 x_2 1)))
 (let (($x6617 (= ?x6680 (+ 3 ?x3007))))
 (let (($x5201 (= (stack_t x_0 x_1 x_2 1 (bvadd (_ bv63 6) ?x63)) (stack_t x_0 x_1 x_2 0 (bvadd (_ bv63 6) ?x63)))))
 (let ((?x7387 (bvadd (_ bv62 6) ?x63)))
 (let ((?x2270 (stack_t x_0 x_1 x_2 0 ?x7387)))
 (let (($x5282 (= (stack_t x_0 x_1 x_2 1 ?x7387) ?x2270)))
 (let (($x4383 (not (= ((_ extract 6 6) (bvadd (_ bv1 7) (concat (_ bv0 1) (sc_s 3)))) (_ bv0 1)))))
 (let (($x292 (exc_halt_s 3)))
 (let (($x5764 (forall ((w (_ BitVec 256)) )(let ((?x3287 (storage_s x_0 x_1 x_2 3 w)))
 (let ((?x7572 (storage_s x_0 x_1 x_2 4 w)))
 (= ?x7572 ?x3287))))
 ))
 (let (($x3821 (forall ((n (_ BitVec 6)) )(let ((?x1532 (stack_s x_0 x_1 x_2 3 n)))
 (let ((?x6946 (stack_s x_0 x_1 x_2 4 n)))
 (let (($x7504 (= ?x6946 ?x1532)))
 (or $x7504 (bvsle (bvadd (_ bv61 6) (sc_s 3)) n))))))
 ))
 (let (($x11555 (= ?x4305 (bvadd (_ bv1 6) (sc_s 3)))))
 (let ((?x3363 (used_gas_s x_0 x_1 x_2 4)))
 (let (($x7372 (= ?x3363 (+ 3 (used_gas_s x_0 x_1 x_2 3)))))
 (let ((?x275 (sc_s 3)))
 (let ((?x9812 (bvadd (_ bv63 6) ?x275)))
 (let ((?x1368 (stack_s x_0 x_1 x_2 3 ?x9812)))
 (let (($x7816 (= (stack_s x_0 x_1 x_2 4 ?x9812) ?x1368)))
 (let ((?x9043 (bvadd (_ bv62 6) ?x275)))
 (let ((?x8980 (stack_s x_0 x_1 x_2 3 ?x9043)))
 (let (($x322 (= (stack_s x_0 x_1 x_2 4 ?x9043) ?x8980)))
 (let ((?x3143 (bvadd (_ bv61 6) ?x275)))
 (let ((?x10742 (stack_s x_0 x_1 x_2 3 ?x3143)))
 (let (($x6618 (= (stack_s x_0 x_1 x_2 4 ?x3143) ?x10742)))
 (let (($x6649 (= $x292 (or (exc_halt_s 2) (not (bvsle (_ bv0 6) (bvadd (_ bv62 6) (sc_s 2))))))))
 (let (($x2970 (forall ((w (_ BitVec 256)) )(let ((?x762 (storage_s x_0 x_1 x_2 2 w)))
 (let ((?x3287 (storage_s x_0 x_1 x_2 3 w)))
 (= ?x3287 ?x762))))
 ))
 (let (($x3654 (forall ((n (_ BitVec 6)) )(let ((?x3302 (stack_s x_0 x_1 x_2 2 n)))
 (let ((?x1532 (stack_s x_0 x_1 x_2 3 n)))
 (or (bvsle (bvadd (_ bv62 6) (sc_s 2)) n) (= ?x1532 ?x3302)))))
 ))
 (let ((?x218 (sc_s 2)))
 (let (($x8987 (= ?x275 ?x218)))
 (let ((?x6900 (used_gas_s x_0 x_1 x_2 3)))
 (let (($x8252 (= ?x6900 (+ 3 (used_gas_s x_0 x_1 x_2 2)))))
 (let (($x247 (exc_halt_s 2)))
 (let (($x9717 (= $x247 (or (exc_halt_s 1) (not (bvsle (_ bv0 6) (bvadd (_ bv61 6) (sc_s 1))))))))
 (let (($x510 (forall ((w (_ BitVec 256)) )(let ((?x4266 (storage_s x_0 x_1 x_2 1 w)))
 (let ((?x762 (storage_s x_0 x_1 x_2 2 w)))
 (= ?x762 ?x4266))))
 ))
 (let (($x9622 (forall ((n (_ BitVec 6)) )(let ((?x1788 (stack_s x_0 x_1 x_2 1 n)))
 (let ((?x3302 (stack_s x_0 x_1 x_2 2 n)))
 (or (= ?x3302 ?x1788) (bvsle (bvadd (_ bv61 6) (sc_s 1)) n)))))
 ))
 (let ((?x154 (sc_s 1)))
 (let (($x9830 (= ?x218 ?x154)))
 (let ((?x5946 (used_gas_s x_0 x_1 x_2 2)))
 (let (($x3545 (= ?x5946 (+ 3 (used_gas_s x_0 x_1 x_2 1)))))
 (let ((?x9962 (bvadd (_ bv62 6) ?x154)))
 (let ((?x9616 (stack_s x_0 x_1 x_2 1 ?x9962)))
 (let ((?x2513 (bvadd (_ bv62 6) ?x218)))
 (let ((?x3147 (stack_s x_0 x_1 x_2 2 ?x2513)))
 (let ((?x2245 (bvadd (_ bv63 6) ?x154)))
 (let ((?x9296 (stack_s x_0 x_1 x_2 1 ?x2245)))
 (let ((?x164 (bvadd (_ bv61 6) ?x154)))
 (let ((?x11335 (stack_s x_0 x_1 x_2 1 ?x164)))
 (let ((?x7855 (bvadd (_ bv63 6) ?x218)))
 (let ((?x2152 (stack_s x_0 x_1 x_2 2 ?x7855)))
 (let (($x2448 (= ?x2152 ?x11335)))
 (let (($x7442 (forall ((w (_ BitVec 256)) )(let ((?x5100 (storage_s x_0 x_1 x_2 0 w)))
 (let ((?x4266 (storage_s x_0 x_1 x_2 1 w)))
 (= ?x4266 ?x5100))))
 ))
 (let (($x8190 (forall ((n (_ BitVec 6)) )(let ((?x5085 (stack_s x_0 x_1 x_2 0 n)))
 (let ((?x1788 (stack_s x_0 x_1 x_2 1 n)))
 (let (($x2644 (= ?x1788 ?x5085)))
 (or $x2644 (bvsle (bvadd (_ bv62 6) (sc_s 0)) n))))))
 ))
 (let (($x6141 (= ?x154 ?x72)))
 (let ((?x3352 (used_gas_s x_0 x_1 x_2 1)))
 (let (($x5249 (= ?x3352 (+ 3 ?x5472))))
 (let (($x10256 (forall ((w (_ BitVec 256)) )(let ((?x5100 (storage_s x_0 x_1 x_2 0 w)))
 (= ?x5100 (_ bv0 256))))
 ))
 (let (($x3010 (= ?x5472 0)))
 (let (($x6901 (not $x57)))
 (let (($x5967 (= (stack_s x_0 x_1 x_2 0 (_ bv2 6)) x_2)))
 (let (($x5070 (= (stack_s x_0 x_1 x_2 0 (_ bv1 6)) x_1)))
 (let (($x2401 (= (stack_s x_0 x_1 x_2 0 (_ bv0 6)) x_0)))
 (let (($x5315 (= ?x72 (_ bv3 6))))
 (and $x5315 $x2401 $x5070 $x5967 $x6901 $x3010 $x10256 (= ?x9296 (stack_s x_0 x_1 x_2 0 (bvadd (_ bv62 6) ?x72))) (= ?x9616 (stack_s x_0 x_1 x_2 0 (bvadd (_ bv63 6) ?x72))) $x5249 $x6141 $x8190 $x7442 (= (exc_halt_s 1) (or $x57 (not (bvsle (_ bv0 6) (bvadd (_ bv62 6) ?x72))))) $x2448 (= (stack_s x_0 x_1 x_2 2 (bvadd (_ bv61 6) ?x218)) ?x9296) (= ?x3147 ?x9616) $x3545 $x9830 $x9622 $x510 $x9717 (= ?x1368 ?x3147) (= ?x8980 ?x2152) $x8252 $x8987 $x3654 $x2970 $x6649 (= (stack_s x_0 x_1 x_2 4 (bvadd (_ bv63 6) ?x4305)) ?x10742) $x6618 $x322 $x7816 $x7372 $x11555 $x3821 $x5764 (= $x7172 (or $x292 (not (bvsle (_ bv0 6) ?x3143)) $x4383)) (= ?x11125 ?x2270) $x5282 $x5201 $x6617 $x6213 $x10716 $x9201 $x11453 (= ?x2471 (stack_t x_0 x_1 x_2 1 (bvadd (_ bv60 6) ?x8347))) (= ?x3601 ?x11125) (= ?x1094 (stack_t x_0 x_1 x_2 1 (bvadd (_ bv61 6) ?x8347))) (= ?x3423 (stack_t x_0 x_1 x_2 1 (bvadd (_ bv62 6) ?x8347))) $x6510 $x3618 $x5304 $x6874 $x7730 (= ?x4005 ?x1094) (= (stack_t x_0 x_1 x_2 3 (bvadd (_ bv61 6) ?x6438)) ?x2471) (= ?x5153 ?x3423) $x8047 (= ?x6438 ?x2714) $x10679 $x5139 $x140 $x73 $x1355 $x58 $x6975 $x846 (not (and $x10526 $x4165 $x3272 $x8234))))))))))))))))))))))))))))))))))))))))))))))))))))))))))))))))))))))))))))))))))))))))))))))))))))))))))))))))))))))
 )
(check-sat)
(get-proof)
